/*********************************************
 * OPL 12.7.1.0 Data
 * Author: Alumno
 *********************************************/
/*PRODUCTOS:
1: Nescafe Dolca
2: Nescafe Clasico
3: Nescafe Gold Blend
... 
*/

PRODUCTOS = {1, 2, 3, 4, 5, 6, 7, 8, 9, 10, 11, 12, 13, 14, 15, 16, 17, 18, 19, 20, 21, 22, 23, 24, 25, 26, 27, 28, 29, 30, 31, 32, 33, 34, 35, 36, 37, 38, 39, 40, 41, 42, 43, 44, 45, 46, 47, 48, 49, 50, 51, 52, 53, 54, 55, 56, 57, 58, 59, 60, 61, 62, 63, 64, 65, 66, 67, 68, 69, 70, 71, 72, 73, 74, 75, 76, 77, 78, 79, 80, 81, 82, 83, 84, 85, 86, 87, 88, 89, 90, 91, 92, 93, 94, 95, 96, 97, 98, 99, 100};
DISPONIBILIDAD = [ 1, 0, 1, 1, 0, 1, 1, 0, 1, 1, 0, 1, 1, 1, 1, 1, 0, 1, 1, 0, 0, 1, 0, 0, 0, 0, 0, 0, 0, 1, 1, 1, 1, 0, 0, 0, 1, 1, 1, 1, 0, 0, 1, 1, 0, 1, 0, 0, 1, 1, 0, 1, 0, 0, 1, 1, 0, 0, 0, 0, 0, 0, 0, 0, 1, 1, 0, 1, 1, 0, 1, 0, 1, 1, 1, 0, 0, 1, 0, 1, 0, 0, 1, 1, 0, 1, 0, 1, 1, 0, 0, 0, 1, 0, 1, 1, 1, 1, 0, 0 ];
PRECIO_PROMO = [ 168, 188, 136, 212, 172, 224, 83, 155, 107, 135, 181, 74, 197, 199, 214, 106, 118, 117, 121, 166, 90, 120, 126, 202, 128, 72, 217, 144, 151, 72, 177, 104, 89, 165, 213, 117, 211, 87, 81, 117, 112, 183, 101, 99, 105, 214, 149, 147, 113, 162, 88, 225, 72, 166, 202, 80, 84, 118, 90, 202, 161, 207, 142, 154, 91, 197, 167, 155, 127, 209, 224, 181, 81, 144, 126, 117, 101, 169, 158, 153, 185, 203, 209, 100, 88, 198, 170, 216, 125, 123, 144, 90, 217, 127, 155, 180, 176, 187, 89, 191 ];
PRECIO_REGULAR = [ 187, 209, 152, 236, 192, 249, 93, 173, 119, 151, 202, 83, 219, 222, 238, 118, 132, 131, 135, 185, 101, 134, 141, 225, 143, 81, 242, 160, 168, 81, 197, 116, 99, 184, 237, 130, 235, 97, 91, 131, 125, 204, 113, 111, 117, 238, 166, 164, 126, 181, 98, 250, 81, 185, 225, 89, 94, 132, 100, 225, 179, 230, 158, 172, 102, 219, 186, 173, 142, 233, 249, 202, 90, 161, 141, 131, 113, 188, 176, 171, 206, 226, 233, 112, 98, 220, 189, 240, 139, 137, 161, 100, 242, 142, 173, 200, 196, 208, 99, 213 ];
PREFERENCIAS_PROMO = [ 17, 41, 40, 42, 8, 104, 131, 79, 70, 122, 95, 28, 18, 110, 121, 53, 158, 101, 35, 59, 65, 114, 56, 37, 174, 61, 102, 3, 98, 55, 6, 157, 57, 11, 106, 45, 36, 51, 21, 52, 43, 44, 39, 103, 20, 149, 76, 132, 112, 30, 47, 60, 113, 73, 2, 13, 27, 16, 166, 22, 94, 48, 75, 29, 14, 143, 64, 184, 91, 170, 81, 4, 34, 63, 78, 169, 128, 1, 127, 25, 105, 97, 7, 77, 136, 108, 9, 84, 139, 71, 19, 33, 32, 188, 50, 12, 46, 38, 26, 5 ];
PREFERENCIAS_REGULAR = [ 197, 148, 187, 115, 10, 144, 145, 83, 193, 182, 199, 154, 140, 183, 134, 93, 195, 190, 178, 86, 117, 147, 92, 109, 177, 138, 163, 142, 99, 88, 69, 180, 153, 58, 141, 62, 137, 124, 107, 72, 155, 68, 116, 181, 89, 151, 118, 167, 159, 96, 164, 168, 185, 200, 15, 126, 130, 165, 173, 150, 191, 125, 194, 31, 49, 161, 176, 186, 152, 192, 85, 111, 100, 133, 160, 196, 171, 67, 129, 82, 123, 179, 23, 80, 162, 198, 66, 146, 156, 175, 24, 87, 74, 189, 119, 54, 135, 172, 90, 120 ];
